# Node Net
 16   1
 30   1
8044   1
2071   2
2881   2
1981   2
8031   3
5671   3
1081   3
3151   4
4590   4
4950   4
8089   5
3060   5
1890   5
5940   6
 46   6
 59   6
  7   7
1351   7
5311   7
8079   8
8019   8
630   8
8060   9
8055   9
6930  10
8032  10
8050  11
 45  11
